; SWAP1 PUSH cw_1 SWAP2 SSTORE NUMBER SWAP1 => SSTORE NUMBER PUSH cw_1
(set-option :produce-proofs true)
; 
(set-info :status unknown)
(declare-fun storage_t ((_ BitVec 256) (_ BitVec 256) (_ BitVec 256) (_ BitVec 256) (_ BitVec 256) Int (_ BitVec 256)) (_ BitVec 256))
(declare-fun w_1 () (_ BitVec 256))
(declare-fun storage_s ((_ BitVec 256) (_ BitVec 256) (_ BitVec 256) (_ BitVec 256) (_ BitVec 256) Int (_ BitVec 256)) (_ BitVec 256))
(declare-fun exc_halt_t (Int) Bool)
(declare-fun exc_halt_s (Int) Bool)
(declare-fun sc_t (Int) (_ BitVec 6))
(declare-fun stack_t ((_ BitVec 256) (_ BitVec 256) (_ BitVec 256) (_ BitVec 256) (_ BitVec 256) Int (_ BitVec 6)) (_ BitVec 256))
(declare-fun stack_s ((_ BitVec 256) (_ BitVec 256) (_ BitVec 256) (_ BitVec 256) (_ BitVec 256) Int (_ BitVec 6)) (_ BitVec 256))
(declare-fun sc_s (Int) (_ BitVec 6))
(declare-fun used_gas_t ((_ BitVec 256) (_ BitVec 256) (_ BitVec 256) (_ BitVec 256) (_ BitVec 256) Int) Int)
(declare-fun used_gas_s ((_ BitVec 256) (_ BitVec 256) (_ BitVec 256) (_ BitVec 256) (_ BitVec 256) Int) Int)
(assert
 (exists ((x_0 (_ BitVec 256)) (x_1 (_ BitVec 256)) (x_SSTORE_0 (_ BitVec 256)) (x_NUMBER (_ BitVec 256)) )(let (($x8750 (forall ((w (_ BitVec 256)) )(let ((?x5827 (storage_t x_0 x_1 x_SSTORE_0 w_1 x_NUMBER 3 w)))
 (let ((?x6127 (storage_s x_0 x_1 x_SSTORE_0 w_1 x_NUMBER 6 w)))
 (= ?x6127 ?x5827))))
 ))
 (let (($x10336 (exc_halt_t 3)))
 (let (($x772 (exc_halt_s 6)))
 (let (($x2647 (= $x772 $x10336)))
 (let (($x7731 (forall ((n (_ BitVec 6)) )(let ((?x2012 (sc_t 3)))
 (let (($x7694 (bvsle ?x2012 n)))
 (let ((?x9415 (stack_t x_0 x_1 x_SSTORE_0 w_1 x_NUMBER 3 n)))
 (let ((?x694 (stack_s x_0 x_1 x_SSTORE_0 w_1 x_NUMBER 6 n)))
 (let (($x516 (= ?x694 ?x9415)))
 (or $x516 $x7694)))))))
 ))
 (let ((?x2012 (sc_t 3)))
 (let ((?x926 (sc_s 6)))
 (let (($x7824 (= ?x926 ?x2012)))
 (let ((?x6272 (used_gas_t x_0 x_1 x_SSTORE_0 w_1 x_NUMBER 0)))
 (let ((?x7188 (used_gas_s x_0 x_1 x_SSTORE_0 w_1 x_NUMBER 0)))
 (let (($x7836 (= ?x7188 ?x6272)))
 (let (($x7861 (forall ((w (_ BitVec 256)) )(let ((?x8447 (storage_t x_0 x_1 x_SSTORE_0 w_1 x_NUMBER 0 w)))
 (let ((?x6359 (storage_s x_0 x_1 x_SSTORE_0 w_1 x_NUMBER 0 w)))
 (= ?x6359 ?x8447))))
 ))
 (let (($x56 (exc_halt_t 0)))
 (let (($x57 (exc_halt_s 0)))
 (let (($x58 (= $x57 $x56)))
 (let (($x6974 (forall ((n (_ BitVec 6)) )(let ((?x6107 (stack_t x_0 x_1 x_SSTORE_0 w_1 x_NUMBER 0 n)))
 (let ((?x299 (stack_s x_0 x_1 x_SSTORE_0 w_1 x_NUMBER 0 n)))
 (let (($x9009 (= ?x299 ?x6107)))
 (let ((?x63 (sc_t 0)))
 (let (($x4561 (bvsle ?x63 n)))
 (or $x4561 $x9009)))))))
 ))
 (let ((?x63 (sc_t 0)))
 (let ((?x72 (sc_s 0)))
 (let (($x73 (= ?x72 ?x63)))
 (let (($x6776 (not (= ((_ extract 6 6) (bvadd (_ bv1 7) (concat (_ bv0 1) (sc_t 2)))) (_ bv0 1)))))
 (let (($x903 (exc_halt_t 2)))
 (let (($x10290 (forall ((w (_ BitVec 256)) )(let ((?x6564 (storage_t x_0 x_1 x_SSTORE_0 w_1 x_NUMBER 2 w)))
 (let ((?x5827 (storage_t x_0 x_1 x_SSTORE_0 w_1 x_NUMBER 3 w)))
 (= ?x5827 ?x6564))))
 ))
 (let (($x3106 (forall ((n (_ BitVec 6)) )(let ((?x8909 (stack_t x_0 x_1 x_SSTORE_0 w_1 x_NUMBER 2 n)))
 (let ((?x9415 (stack_t x_0 x_1 x_SSTORE_0 w_1 x_NUMBER 3 n)))
 (let ((?x4056 (sc_t 2)))
 (let (($x4536 (bvsle ?x4056 n)))
 (or $x4536 (= ?x9415 ?x8909)))))))
 ))
 (let (($x8282 (= ?x2012 (bvadd (_ bv1 6) (sc_t 2)))))
 (let (($x8891 (= (used_gas_t x_0 x_1 x_SSTORE_0 w_1 x_NUMBER 3) (+ 3 (used_gas_t x_0 x_1 x_SSTORE_0 w_1 x_NUMBER 2)))))
 (let (($x390 (not (= ((_ extract 6 6) (bvadd (_ bv1 7) (concat (_ bv0 1) (sc_t 1)))) (_ bv0 1)))))
 (let (($x1920 (exc_halt_t 1)))
 (let (($x9144 (= $x903 (or $x1920 $x390))))
 (let (($x9241 (forall ((w (_ BitVec 256)) )(let ((?x7256 (storage_t x_0 x_1 x_SSTORE_0 w_1 x_NUMBER 1 w)))
 (let ((?x6564 (storage_t x_0 x_1 x_SSTORE_0 w_1 x_NUMBER 2 w)))
 (= ?x6564 ?x7256))))
 ))
 (let (($x8687 (forall ((n (_ BitVec 6)) )(let ((?x1051 (stack_t x_0 x_1 x_SSTORE_0 w_1 x_NUMBER 1 n)))
 (let ((?x8909 (stack_t x_0 x_1 x_SSTORE_0 w_1 x_NUMBER 2 n)))
 (let ((?x4023 (sc_t 1)))
 (let (($x717 (bvsle ?x4023 n)))
 (or $x717 (= ?x8909 ?x1051)))))))
 ))
 (let ((?x4056 (sc_t 2)))
 (let (($x8461 (= ?x4056 (bvadd (_ bv1 6) (sc_t 1)))))
 (let ((?x9106 (used_gas_t x_0 x_1 x_SSTORE_0 w_1 x_NUMBER 2)))
 (let (($x2083 (= $x1920 (or $x56 (not (bvsle (_ bv0 6) (bvadd (_ bv62 6) ?x63)))))))
 (let (($x8041 (forall ((n (_ BitVec 6)) )(let ((?x63 (sc_t 0)))
 (let ((?x4678 (bvadd (_ bv62 6) ?x63)))
 (let (($x10732 (bvsle ?x4678 n)))
 (let ((?x6107 (stack_t x_0 x_1 x_SSTORE_0 w_1 x_NUMBER 0 n)))
 (let ((?x1051 (stack_t x_0 x_1 x_SSTORE_0 w_1 x_NUMBER 1 n)))
 (or (= ?x1051 ?x6107) $x10732)))))))
 ))
 (let ((?x4678 (bvadd (_ bv62 6) ?x63)))
 (let ((?x4023 (sc_t 1)))
 (let (($x4810 (= ?x4023 ?x4678)))
 (let (($x7689 (= (stack_t x_0 x_1 x_SSTORE_0 w_1 x_NUMBER 0 ?x4678) (_ bv0 256))))
 (let ((?x4405 (storage_t x_0 x_1 x_SSTORE_0 w_1 x_NUMBER 0 (stack_t x_0 x_1 x_SSTORE_0 w_1 x_NUMBER 0 (bvadd (_ bv63 6) ?x63)))))
 (let ((?x1341 (+ ?x6272 (ite (= ?x4405 (_ bv0 256)) (ite $x7689 5000 20000) (ite $x7689 (- 10000) 5000)))))
 (let ((?x1714 (used_gas_t x_0 x_1 x_SSTORE_0 w_1 x_NUMBER 1)))
 (let (($x9255 (forall ((w (_ BitVec 256)) )(let ((?x8447 (storage_t x_0 x_1 x_SSTORE_0 w_1 x_NUMBER 0 w)))
 (let (($x8629 (= w (stack_t x_0 x_1 x_SSTORE_0 w_1 x_NUMBER 0 (bvadd (_ bv63 6) (sc_t 0))))))
 (let ((?x9210 (ite $x8629 (stack_t x_0 x_1 x_SSTORE_0 w_1 x_NUMBER 0 (bvadd (_ bv62 6) (sc_t 0))) ?x8447)))
 (let ((?x7256 (storage_t x_0 x_1 x_SSTORE_0 w_1 x_NUMBER 1 w)))
 (= ?x7256 ?x9210))))))
 ))
 (let (($x8797 (= $x772 (or (exc_halt_s 5) (not (bvsle (_ bv0 6) (bvadd (_ bv62 6) (sc_s 5))))))))
 (let (($x446 (forall ((w (_ BitVec 256)) )(let ((?x7775 (storage_s x_0 x_1 x_SSTORE_0 w_1 x_NUMBER 5 w)))
 (let ((?x6127 (storage_s x_0 x_1 x_SSTORE_0 w_1 x_NUMBER 6 w)))
 (= ?x6127 ?x7775))))
 ))
 (let (($x9019 (forall ((n (_ BitVec 6)) )(let ((?x1052 (stack_s x_0 x_1 x_SSTORE_0 w_1 x_NUMBER 5 n)))
 (let ((?x694 (stack_s x_0 x_1 x_SSTORE_0 w_1 x_NUMBER 6 n)))
 (let ((?x805 (sc_s 5)))
 (let ((?x6337 (bvadd (_ bv62 6) ?x805)))
 (let (($x5548 (bvsle ?x6337 n)))
 (or $x5548 (= ?x694 ?x1052))))))))
 ))
 (let ((?x805 (sc_s 5)))
 (let (($x3879 (= ?x926 ?x805)))
 (let (($x2967 (= (used_gas_s x_0 x_1 x_SSTORE_0 w_1 x_NUMBER 6) (+ 3 (used_gas_s x_0 x_1 x_SSTORE_0 w_1 x_NUMBER 5)))))
 (let (($x1433 (= (stack_s x_0 x_1 x_SSTORE_0 w_1 x_NUMBER 6 (bvadd (_ bv62 6) ?x926)) (stack_s x_0 x_1 x_SSTORE_0 w_1 x_NUMBER 5 (bvadd (_ bv63 6) ?x805)))))
 (let (($x7612 (= (stack_s x_0 x_1 x_SSTORE_0 w_1 x_NUMBER 6 (bvadd (_ bv63 6) ?x926)) (stack_s x_0 x_1 x_SSTORE_0 w_1 x_NUMBER 5 (bvadd (_ bv62 6) ?x805)))))
 (let (($x64 (exc_halt_s 4)))
 (let (($x8688 (or $x64 (not (= ((_ extract 6 6) (bvadd (_ bv1 7) (concat (_ bv0 1) (sc_s 4)))) (_ bv0 1))))))
 (let (($x3979 (exc_halt_s 5)))
 (let (($x8393 (forall ((w (_ BitVec 256)) )(let ((?x7797 (storage_s x_0 x_1 x_SSTORE_0 w_1 x_NUMBER 4 w)))
 (let ((?x7775 (storage_s x_0 x_1 x_SSTORE_0 w_1 x_NUMBER 5 w)))
 (= ?x7775 ?x7797))))
 ))
 (let (($x7988 (forall ((n (_ BitVec 6)) )(let ((?x7786 (stack_s x_0 x_1 x_SSTORE_0 w_1 x_NUMBER 4 n)))
 (let ((?x1052 (stack_s x_0 x_1 x_SSTORE_0 w_1 x_NUMBER 5 n)))
 (or (bvsle (sc_s 4) n) (= ?x1052 ?x7786)))))
 ))
 (let ((?x7847 (used_gas_s x_0 x_1 x_SSTORE_0 w_1 x_NUMBER 5)))
 (let (($x559 (= $x64 (or (exc_halt_s 3) (not (bvsle (_ bv0 6) (bvadd (_ bv62 6) (sc_s 3))))))))
 (let (($x5824 (forall ((n (_ BitVec 6)) )(let ((?x275 (sc_s 3)))
 (let ((?x7469 (bvadd (_ bv62 6) ?x275)))
 (let (($x6178 (bvsle ?x7469 n)))
 (let ((?x7904 (stack_s x_0 x_1 x_SSTORE_0 w_1 x_NUMBER 3 n)))
 (let ((?x7786 (stack_s x_0 x_1 x_SSTORE_0 w_1 x_NUMBER 4 n)))
 (or (= ?x7786 ?x7904) $x6178)))))))
 ))
 (let ((?x275 (sc_s 3)))
 (let ((?x7469 (bvadd (_ bv62 6) ?x275)))
 (let ((?x4305 (sc_s 4)))
 (let (($x11177 (= ?x4305 ?x7469)))
 (let ((?x8641 (stack_s x_0 x_1 x_SSTORE_0 w_1 x_NUMBER 3 ?x7469)))
 (let (($x3522 (= ?x8641 (_ bv0 256))))
 (let ((?x11143 (bvadd (_ bv63 6) ?x275)))
 (let ((?x8378 (stack_s x_0 x_1 x_SSTORE_0 w_1 x_NUMBER 3 ?x11143)))
 (let ((?x539 (ite (= (storage_s x_0 x_1 x_SSTORE_0 w_1 x_NUMBER 3 ?x8378) (_ bv0 256)) (ite $x3522 5000 20000) (ite $x3522 (- 10000) 5000))))
 (let ((?x1015 (used_gas_s x_0 x_1 x_SSTORE_0 w_1 x_NUMBER 3)))
 (let ((?x9192 (used_gas_s x_0 x_1 x_SSTORE_0 w_1 x_NUMBER 4)))
 (let (($x7614 (forall ((w (_ BitVec 256)) )(let ((?x6728 (storage_s x_0 x_1 x_SSTORE_0 w_1 x_NUMBER 3 w)))
 (let (($x657 (= w (stack_s x_0 x_1 x_SSTORE_0 w_1 x_NUMBER 3 (bvadd (_ bv63 6) (sc_s 3))))))
 (let ((?x9162 (ite $x657 (stack_s x_0 x_1 x_SSTORE_0 w_1 x_NUMBER 3 (bvadd (_ bv62 6) (sc_s 3))) ?x6728)))
 (let ((?x7797 (storage_s x_0 x_1 x_SSTORE_0 w_1 x_NUMBER 4 w)))
 (= ?x7797 ?x9162))))))
 ))
 (let (($x292 (exc_halt_s 3)))
 (let (($x5994 (= $x292 (or (exc_halt_s 2) (not (bvsle (_ bv0 6) (bvadd (_ bv61 6) (sc_s 2))))))))
 (let (($x8988 (forall ((w (_ BitVec 256)) )(let ((?x7698 (storage_s x_0 x_1 x_SSTORE_0 w_1 x_NUMBER 2 w)))
 (let ((?x6728 (storage_s x_0 x_1 x_SSTORE_0 w_1 x_NUMBER 3 w)))
 (= ?x6728 ?x7698))))
 ))
 (let (($x3364 (forall ((n (_ BitVec 6)) )(let ((?x3641 (stack_s x_0 x_1 x_SSTORE_0 w_1 x_NUMBER 2 n)))
 (let ((?x7904 (stack_s x_0 x_1 x_SSTORE_0 w_1 x_NUMBER 3 n)))
 (let ((?x218 (sc_s 2)))
 (let ((?x10790 (bvadd (_ bv61 6) ?x218)))
 (let (($x4288 (bvsle ?x10790 n)))
 (or $x4288 (= ?x7904 ?x3641))))))))
 ))
 (let ((?x218 (sc_s 2)))
 (let (($x3833 (= ?x275 ?x218)))
 (let (($x4364 (= (stack_s x_0 x_1 x_SSTORE_0 w_1 x_NUMBER 3 (bvadd (_ bv61 6) ?x275)) (stack_s x_0 x_1 x_SSTORE_0 w_1 x_NUMBER 2 (bvadd (_ bv63 6) ?x218)))))
 (let (($x4770 (not (= ((_ extract 6 6) (bvadd (_ bv1 7) (concat (_ bv0 1) (sc_s 1)))) (_ bv0 1)))))
 (let (($x189 (exc_halt_s 1)))
 (let (($x247 (exc_halt_s 2)))
 (let (($x9476 (forall ((w (_ BitVec 256)) )(let ((?x3557 (storage_s x_0 x_1 x_SSTORE_0 w_1 x_NUMBER 1 w)))
 (let ((?x7698 (storage_s x_0 x_1 x_SSTORE_0 w_1 x_NUMBER 2 w)))
 (= ?x7698 ?x3557))))
 ))
 (let (($x917 (forall ((n (_ BitVec 6)) )(let ((?x228 (stack_s x_0 x_1 x_SSTORE_0 w_1 x_NUMBER 1 n)))
 (let ((?x3641 (stack_s x_0 x_1 x_SSTORE_0 w_1 x_NUMBER 2 n)))
 (or (bvsle (sc_s 1) n) (= ?x3641 ?x228)))))
 ))
 (let (($x10803 (= ?x218 (bvadd (_ bv1 6) (sc_s 1)))))
 (let ((?x3481 (used_gas_s x_0 x_1 x_SSTORE_0 w_1 x_NUMBER 2)))
 (let (($x7789 (forall ((w (_ BitVec 256)) )(let ((?x6359 (storage_s x_0 x_1 x_SSTORE_0 w_1 x_NUMBER 0 w)))
 (let ((?x3557 (storage_s x_0 x_1 x_SSTORE_0 w_1 x_NUMBER 1 w)))
 (= ?x3557 ?x6359))))
 ))
 (let (($x9308 (forall ((n (_ BitVec 6)) )(let ((?x72 (sc_s 0)))
 (let ((?x11206 (bvadd (_ bv62 6) ?x72)))
 (let (($x10965 (bvsle ?x11206 n)))
 (let ((?x299 (stack_s x_0 x_1 x_SSTORE_0 w_1 x_NUMBER 0 n)))
 (let ((?x228 (stack_s x_0 x_1 x_SSTORE_0 w_1 x_NUMBER 1 n)))
 (or (= ?x228 ?x299) $x10965)))))))
 ))
 (let ((?x154 (sc_s 1)))
 (let (($x94 (= ?x154 ?x72)))
 (let (($x6894 (= (stack_s x_0 x_1 x_SSTORE_0 w_1 x_NUMBER 1 (bvadd (_ bv62 6) ?x154)) (stack_s x_0 x_1 x_SSTORE_0 w_1 x_NUMBER 0 (bvadd (_ bv63 6) ?x72)))))
 (let (($x9243 (= (stack_s x_0 x_1 x_SSTORE_0 w_1 x_NUMBER 1 (bvadd (_ bv63 6) ?x154)) (stack_s x_0 x_1 x_SSTORE_0 w_1 x_NUMBER 0 (bvadd (_ bv62 6) ?x72)))))
 (let (($x8611 (forall ((w (_ BitVec 256)) )(let (($x657 (= w (stack_s x_0 x_1 x_SSTORE_0 w_1 x_NUMBER 3 (bvadd (_ bv63 6) (sc_s 3))))))
 (let ((?x6359 (storage_s x_0 x_1 x_SSTORE_0 w_1 x_NUMBER 0 w)))
 (= ?x6359 (ite $x657 x_SSTORE_0 (_ bv0 256))))))
 ))
 (let (($x5376 (= ?x7188 0)))
 (let (($x11171 (not $x57)))
 (let (($x1327 (= (stack_s x_0 x_1 x_SSTORE_0 w_1 x_NUMBER 0 (_ bv1 6)) x_1)))
 (let (($x7389 (= (stack_s x_0 x_1 x_SSTORE_0 w_1 x_NUMBER 0 (_ bv0 6)) x_0)))
 (let (($x5694 (= ?x72 (_ bv2 6))))
 (and $x5694 $x7389 $x1327 $x11171 $x5376 $x8611 $x9243 $x6894 (= (used_gas_s x_0 x_1 x_SSTORE_0 w_1 x_NUMBER 1) (+ 3 ?x7188)) $x94 $x9308 $x7789 (= $x189 (or $x57 (not (bvsle (_ bv0 6) (bvadd (_ bv62 6) ?x72))))) (= (stack_s x_0 x_1 x_SSTORE_0 w_1 x_NUMBER 2 ?x154) w_1) (= ?x3481 (+ 3 (used_gas_s x_0 x_1 x_SSTORE_0 w_1 x_NUMBER 1))) $x10803 $x917 $x9476 (= $x247 (or $x189 $x4770)) (= ?x8378 (stack_s x_0 x_1 x_SSTORE_0 w_1 x_NUMBER 2 (bvadd (_ bv61 6) ?x218))) $x4364 (= ?x8641 (stack_s x_0 x_1 x_SSTORE_0 w_1 x_NUMBER 2 (bvadd (_ bv62 6) ?x218))) (= ?x1015 (+ 3 ?x3481)) $x3833 $x3364 $x8988 $x5994 $x7614 (= ?x9192 (+ ?x1015 ?x539)) $x11177 $x5824 $x559 (= (stack_s x_0 x_1 x_SSTORE_0 w_1 x_NUMBER 5 ?x4305) x_NUMBER) (= ?x7847 (+ 2 ?x9192)) (= ?x805 (bvadd (_ bv1 6) ?x4305)) $x7988 $x8393 (= $x3979 $x8688) $x7612 $x1433 $x2967 $x3879 $x9019 $x446 $x8797 $x9255 (= ?x1714 ?x1341) $x4810 $x8041 $x2083 (= (stack_t x_0 x_1 x_SSTORE_0 w_1 x_NUMBER 2 ?x4023) x_NUMBER) (= ?x9106 (+ 2 ?x1714)) $x8461 $x8687 $x9241 $x9144 (= (stack_t x_0 x_1 x_SSTORE_0 w_1 x_NUMBER 3 ?x4056) w_1) $x8891 $x8282 $x3106 $x10290 (= $x10336 (or $x903 $x6776)) $x73 $x6974 $x58 $x7861 $x7836 (not (and $x7824 $x7731 $x2647 $x8750)))))))))))))))))))))))))))))))))))))))))))))))))))))))))))))))))))))))))))))))))))))))))))))))))))))
 )
(check-sat)
(get-proof)
